N = 27;
PREFILLED_CELLS = [|1, 2, 5|
                    1, 3, 9|
                    1, 4, 8|
                    1, 8, 7|
                    2, 5, 1|
                    3, 1, 3|
                    3, 6, 2|
                    3, 7, 5|
                    3, 9, 8|
                    4, 4, 6|
                    4, 5, 2|
                    4, 9, 1|
                    5, 2, 8|
                    5, 3, 2|
                    5, 5, 3|
                    5, 7, 4|
                    6, 3, 6|
                    6, 8, 3|
                    7, 1, 9|
                    7, 5, 7|
                    7, 9, 3|
                    8, 5, 9|
                    8, 8, 2|
                    9, 2, 4|
                    9, 3, 8|
                    9, 6, 6|
                    9, 7, 7|];